% demand
num_movements = 19;
loading_factor = [1850, 1300, 900, 1450, 1500, 1800, 1150, 1300, 850, 1250, 2000, 1050, 1400, 1800, 850, 1100, 1950, 1200, 900];
pickup_time = [0, 0, 0, 0, 0, 2, 2, 4, 5, 5, 5, 6, 7, 9, 9, 9, 10, 11, 12];
delivery_time = [3, 8, 3, 2, 2, 5, 6, 5, 6, 9, 8, 8, 8, 11, 12, 13, 12, 12, 13];

% transporter definition
total_capacity = 7000;
num_decks = 3;
capacity = [3000, 1000, 3000];

% ways out of decks
num_ways_out = 1;
paths_out = array3d(decks, ways_out, decks, [
% ways out of deck d1
2, 3, 0, 

% ways out of deck d2
3, 0, 0, 

% ways out of deck d3
0, 0, 0,	

]);

